\ LP format - for model browsing. Use MPS format to capture full model detail.
Minimize
  y
Subject To
 c1: x1 + 9 r1 <= 18
 c2: - y + y1 <= -11
 c3: x2 + 9 r2 <= 18
 c4: - y + y2 <= -11
 c5: x3 + 4 r3 <= 17
 c6: - y + y3 <= -7
 c7: x4 + 2 r4 <= 17
 c8: - y + y4 <= -5
 c9: x5 + 2 r5 <= 16
 c10: - y + y5 <= -6
 c11: x6 + 2 r6 <= 16
 c12: - y + y6 <= -6
 c13: x7 + 6 r7 <= 19
 c14: - y + y7 <= -7
 c15: x1 + 9 r1 - 20 p12 - 20 q12 - x2 <= -2
 c16: - 9 r1 + y1 - 20 p12 + 20 q12 - y2 <= 9
 c17: x1 - 20 p12 + 20 q12 - x2 - 9 r2 >= -18
 c18: y1 - 20 p12 - 20 q12 + 9 r2 - y2 >= -29
 c19: x1 + 9 r1 - 20 p13 - 20 q13 - x3 <= -2
 c20: - 9 r1 + y1 - 20 p13 + 20 q13 - y3 <= 9
 c21: x1 - 20 p13 + 20 q13 - x3 - 4 r3 >= -17
 c22: y1 - 20 p13 - 20 q13 + 4 r3 - y3 >= -33
 c23: x1 + 9 r1 - 20 p14 - 20 q14 - x4 <= -2
 c24: - 9 r1 + y1 - 20 p14 + 20 q14 - y4 <= 9
 c25: x1 - 20 p14 + 20 q14 - x4 - 2 r4 >= -17
 c26: y1 - 20 p14 - 20 q14 + 2 r4 - y4 >= -35
 c27: x1 + 9 r1 - 20 p15 - 20 q15 - x5 <= -2
 c28: - 9 r1 + y1 - 20 p15 + 20 q15 - y5 <= 9
 c29: x1 - 20 p15 + 20 q15 - x5 - 2 r5 >= -16
 c30: y1 - 20 p15 - 20 q15 + 2 r5 - y5 >= -34
 c31: x1 + 9 r1 - 20 p16 - 20 q16 - x6 <= -2
 c32: - 9 r1 + y1 - 20 p16 + 20 q16 - y6 <= 9
 c33: x1 - 20 p16 + 20 q16 - x6 - 2 r6 >= -16
 c34: y1 - 20 p16 - 20 q16 + 2 r6 - y6 >= -34
 c35: x1 + 9 r1 - 20 p17 - 20 q17 - x7 <= -2
 c36: - 9 r1 + y1 - 20 p17 + 20 q17 - y7 <= 9
 c37: x1 - 20 p17 + 20 q17 - x7 - 6 r7 >= -19
 c38: y1 - 20 p17 - 20 q17 + 6 r7 - y7 >= -33
 c39: x2 + 9 r2 - 20 p23 - 20 q23 - x3 <= -2
 c40: - 9 r2 + y2 - 20 p23 + 20 q23 - y3 <= 9
 c41: x2 - 20 p23 + 20 q23 - x3 - 4 r3 >= -17
 c42: y2 - 20 p23 - 20 q23 + 4 r3 - y3 >= -33
 c43: x2 + 9 r2 - 20 p24 - 20 q24 - x4 <= -2
 c44: - 9 r2 + y2 - 20 p24 + 20 q24 - y4 <= 9
 c45: x2 - 20 p24 + 20 q24 - x4 - 2 r4 >= -17
 c46: y2 - 20 p24 - 20 q24 + 2 r4 - y4 >= -35
 c47: x2 + 9 r2 - 20 p25 - 20 q25 - x5 <= -2
 c48: - 9 r2 + y2 - 20 p25 + 20 q25 - y5 <= 9
 c49: x2 - 20 p25 + 20 q25 - x5 - 2 r5 >= -16
 c50: y2 - 20 p25 - 20 q25 + 2 r5 - y5 >= -34
 c51: x2 + 9 r2 - 20 p26 - 20 q26 - x6 <= -2
 c52: - 9 r2 + y2 - 20 p26 + 20 q26 - y6 <= 9
 c53: x2 - 20 p26 + 20 q26 - x6 - 2 r6 >= -16
 c54: y2 - 20 p26 - 20 q26 + 2 r6 - y6 >= -34
 c55: x2 + 9 r2 - 20 p27 - 20 q27 - x7 <= -2
 c56: - 9 r2 + y2 - 20 p27 + 20 q27 - y7 <= 9
 c57: x2 - 20 p27 + 20 q27 - x7 - 6 r7 >= -19
 c58: y2 - 20 p27 - 20 q27 + 6 r7 - y7 >= -33
 c59: x3 + 4 r3 - 20 p34 - 20 q34 - x4 <= -3
 c60: - 4 r3 + y3 - 20 p34 + 20 q34 - y4 <= 13
 c61: x3 - 20 p34 + 20 q34 - x4 - 2 r4 >= -17
 c62: y3 - 20 p34 - 20 q34 + 2 r4 - y4 >= -35
 c63: x3 + 4 r3 - 20 p35 - 20 q35 - x5 <= -3
 c64: - 4 r3 + y3 - 20 p35 + 20 q35 - y5 <= 13
 c65: x3 - 20 p35 + 20 q35 - x5 - 2 r5 >= -16
 c66: y3 - 20 p35 - 20 q35 + 2 r5 - y5 >= -34
 c67: x3 + 4 r3 - 20 p36 - 20 q36 - x6 <= -3
 c68: - 4 r3 + y3 - 20 p36 + 20 q36 - y6 <= 13
 c69: x3 - 20 p36 + 20 q36 - x6 - 2 r6 >= -16
 c70: y3 - 20 p36 - 20 q36 + 2 r6 - y6 >= -34
 c71: x3 + 4 r3 - 20 p37 - 20 q37 - x7 <= -3
 c72: - 4 r3 + y3 - 20 p37 + 20 q37 - y7 <= 13
 c73: x3 - 20 p37 + 20 q37 - x7 - 6 r7 >= -19
 c74: y3 - 20 p37 - 20 q37 + 6 r7 - y7 >= -33
 c75: x4 + 2 r4 - 20 p45 - 20 q45 - x5 <= -3
 c76: - 2 r4 + y4 - 20 p45 + 20 q45 - y5 <= 15
 c77: x4 - 20 p45 + 20 q45 - x5 - 2 r5 >= -16
 c78: y4 - 20 p45 - 20 q45 + 2 r5 - y5 >= -34
 c79: x4 + 2 r4 - 20 p46 - 20 q46 - x6 <= -3
 c80: - 2 r4 + y4 - 20 p46 + 20 q46 - y6 <= 15
 c81: x4 - 20 p46 + 20 q46 - x6 - 2 r6 >= -16
 c82: y4 - 20 p46 - 20 q46 + 2 r6 - y6 >= -34
 c83: x4 + 2 r4 - 20 p47 - 20 q47 - x7 <= -3
 c84: - 2 r4 + y4 - 20 p47 + 20 q47 - y7 <= 15
 c85: x4 - 20 p47 + 20 q47 - x7 - 6 r7 >= -19
 c86: y4 - 20 p47 - 20 q47 + 6 r7 - y7 >= -33
 c87: x5 + 2 r5 - 20 p56 - 20 q56 - x6 <= -4
 c88: - 2 r5 + y5 - 20 p56 + 20 q56 - y6 <= 14
 c89: x5 - 20 p56 + 20 q56 - x6 - 2 r6 >= -16
 c90: y5 - 20 p56 - 20 q56 + 2 r6 - y6 >= -34
 c91: x5 + 2 r5 - 20 p57 - 20 q57 - x7 <= -4
 c92: - 2 r5 + y5 - 20 p57 + 20 q57 - y7 <= 14
 c93: x5 - 20 p57 + 20 q57 - x7 - 6 r7 >= -19
 c94: y5 - 20 p57 - 20 q57 + 6 r7 - y7 >= -33
 c95: x6 + 2 r6 - 20 p67 - 20 q67 - x7 <= -4
 c96: - 2 r6 + y6 - 20 p67 + 20 q67 - y7 <= 14
 c97: x6 - 20 p67 + 20 q67 - x7 - 6 r7 >= -19
 c98: y6 - 20 p67 - 20 q67 + 6 r7 - y7 >= -33
Bounds
 r1 <= 1
 r2 <= 1
 r3 <= 1
 r4 <= 1
 r5 <= 1
 r6 <= 1
 r7 <= 1
Binaries
 p12 q12 p13 q13 p14 q14 p15 q15 p16 q16 p17 q17 p23 q23 p24 q24 p25 q25
 p26 q26 p27 q27 p34 q34 p35 q35 p36 q36 p37 q37 p45 q45 p46 q46 p47 q47
 p56 q56 p57 q57 p67 q67
Generals
 x1 r1 y1 x2 r2 y2 x3 r3 y3 x4 r4 y4 x5 r5 y5 x6 r6 y6 x7 r7 y7
End
